p cnf 468 1920
1 -2 0
2 -1 0
3 -4 0
4 -3 0
5 -6 0
6 -5 0
7 -8 0
8 -7 0
9 -10 0
10 -9 0
11 -12 0
12 -11 0
13 -14 0
14 -13 0
15 -16 0
16 -15 0
17 -18 0
18 -17 0
19 -20 0
20 -19 0
21 -22 0
22 -21 0
23 -24 0
24 -23 0
25 -26 0
26 -25 0
27 -28 0
28 -27 0
29 -30 0
30 -29 0
31 -32 0
32 -31 0
33 -34 0
34 -33 0
35 -36 0
36 -35 0
37 -38 0
38 -37 0
39 -40 0
40 -39 0
41 -42 0
42 -41 0
43 -44 0
44 -43 0
45 -46 0
46 -45 0
47 -48 0
48 -47 0
49 -50 0
50 -49 0
51 -52 0
52 -51 0
53 -54 0
54 -53 0
55 -56 0
56 -55 0
57 -58 0
58 -57 0
59 -60 0
60 -59 0
61 -62 0
62 -61 0
63 -64 0
64 -63 0
65 -66 0
66 -65 0
67 -68 0
68 -67 0
69 -70 0
70 -69 0
71 -72 0
72 -71 0
73 -74 0
74 -73 0
75 -76 0
76 -75 0
77 -78 0
78 -77 0
79 -80 0
80 -79 0
81 -82 0
82 -81 0
83 -84 0
84 -83 0
85 -86 0
86 -85 0
87 -88 0
88 -87 0
89 -90 0
90 -89 0
91 -92 0
92 -91 0
93 -94 0
94 -93 0
95 -96 0
96 -95 0
97 -98 0
98 -97 0
99 -100 0
100 -99 0
101 -102 0
102 -101 0
103 -104 0
104 -103 0
105 -106 0
106 -105 0
107 -108 0
108 -107 0
109 -110 0
110 -109 0
111 -112 0
112 -111 0
113 -114 0
114 -113 0
115 -116 0
116 -115 0
117 -118 0
118 -117 0
119 -120 0
120 -119 0
121 -122 0
122 -121 0
123 -124 0
124 -123 0
125 -126 0
126 -125 0
127 -128 0
128 -127 0
129 -130 0
130 -129 0
131 -132 0
132 -131 0
133 -134 0
134 -133 0
135 -136 0
136 -135 0
137 -138 0
138 -137 0
139 -140 0
140 -139 0
141 -142 0
142 -141 0
143 -144 0
144 -143 0
145 -146 0
146 -145 0
147 -148 0
148 -147 0
149 -150 0
150 -149 0
151 -152 0
152 -151 0
153 -154 0
154 -153 0
155 -156 0
156 -155 0
157 -158 0
158 -157 0
159 -160 0
160 -159 0
161 -162 0
162 -161 0
163 -164 0
164 -163 0
165 -166 0
166 -165 0
167 -168 0
168 -167 0
169 -170 0
170 -169 0
171 -172 0
172 -171 0
173 -174 0
174 -173 0
175 -176 0
176 -175 0
177 -178 0
178 -177 0
179 -180 0
180 -179 0
181 -182 0
182 -181 0
183 -184 0
184 -183 0
185 -186 0
186 -185 0
187 -188 0
188 -187 0
189 -190 0
190 -189 0
191 -192 0
192 -191 0
193 -194 0
194 -193 0
195 -196 0
196 -195 0
197 -198 0
198 -197 0
199 -200 0
200 -199 0
201 -202 0
202 -201 0
203 -204 0
204 -203 0
205 -206 0
206 -205 0
-11 -207 13 0
11 -207 -13 0
-11 207 -13 0
11 207 13 0
-207 0
-35 67 -208 0
35 -208 -67 0
-35 -67 208 0
35 67 208 0
-41 73 -209 0
-73 41 -209 0
-41 -73 209 0
73 41 209 0
-210 71 -39 0
-210 39 -71 0
210 -39 -71 0
210 39 71 0
69 -37 -211 0
37 -69 -211 0
-37 -69 211 0
69 37 211 0
-212 205 -173 0
-205 -212 173 0
-205 212 -173 0
212 205 173 0
47 -213 -15 0
-213 -47 15 0
-15 -47 213 0
47 213 15 0
-163 195 -214 0
163 -195 -214 0
-195 -163 214 0
163 195 214 0
-215 -165 197 0
165 -215 -197 0
215 -165 -197 0
165 215 197 0
-171 203 -216 0
171 -203 -216 0
-203 -171 216 0
171 203 216 0
201 -217 -169 0
169 -201 -217 0
-201 217 -169 0
169 201 217 0
-218 -167 199 0
167 -218 -199 0
218 -167 -199 0
167 218 199 0
175 -219 -143 0
143 -219 -175 0
219 -175 -143 0
143 175 219 0
179 -147 -220 0
147 -179 -220 0
220 -147 -179 0
147 220 179 0
-145 177 -221 0
-177 -221 145 0
-145 -177 221 0
177 221 145 0
-93 -222 125 0
93 -125 -222 0
-93 -125 222 0
93 222 125 0
-97 -223 129 0
97 -223 -129 0
-97 223 -129 0
97 223 129 0
-224 -95 127 0
-224 95 -127 0
-127 224 -95 0
95 224 127 0
-43 -225 75 0
-75 43 -225 0
-75 -43 225 0
43 225 75 0
-45 77 -226 0
45 -77 -226 0
-45 -77 226 0
45 77 226 0
65 -33 -227 0
-65 33 -227 0
-65 -33 227 0
65 33 227 0
119 -87 -228 0
87 -119 -228 0
-87 -119 228 0
119 87 228 0
123 -91 -229 0
91 -123 -229 0
-123 -91 229 0
91 123 229 0
-89 121 -230 0
89 -121 -230 0
-89 -121 230 0
89 121 230 0
63 -31 -231 0
31 -63 -231 0
-63 -31 231 0
63 31 231 0
61 -29 -232 0
29 -61 -232 0
-61 -29 232 0
29 61 232 0
-99 131 -233 0
-131 99 -233 0
-99 -131 233 0
131 99 233 0
141 -109 -234 0
109 -141 -234 0
-109 -141 234 0
141 109 234 0
139 -107 -235 0
-139 107 -235 0
-107 -139 235 0
139 107 235 0
137 -105 -236 0
105 -137 -236 0
-137 -105 236 0
137 105 236 0
-103 135 -237 0
103 -135 -237 0
-103 -135 237 0
103 135 237 0
-101 133 -238 0
101 -133 -238 0
-101 -133 238 0
101 133 238 0
-83 115 -239 0
83 -115 -239 0
-83 -115 239 0
83 115 239 0
113 -81 -240 0
81 -113 -240 0
-81 -113 240 0
113 81 240 0
111 -79 -241 0
-111 79 -241 0
-111 -79 241 0
111 79 241 0
-85 117 -242 0
-117 85 -242 0
-85 -117 242 0
85 117 242 0
49 -17 -243 0
-49 17 -243 0
-17 -49 243 0
49 17 243 0
-27 59 -244 0
27 -59 -244 0
-27 -59 244 0
27 59 244 0
57 -25 -245 0
25 -57 -245 0
-25 -57 245 0
57 25 245 0
55 -23 -246 0
-55 23 -246 0
-55 -23 246 0
55 23 246 0
53 -21 -247 0
-53 21 -247 0
-53 -21 247 0
53 21 247 0
51 -19 -248 0
-51 19 -248 0
-51 -19 248 0
51 19 248 0
-157 189 -249 0
157 -189 -249 0
-157 -189 249 0
157 189 249 0
193 -161 -250 0
161 -193 -250 0
-193 -161 250 0
161 193 250 0
-159 191 -251 0
159 -191 -251 0
-159 -191 251 0
159 191 251 0
183 -151 -252 0
151 -183 -252 0
-151 -183 252 0
183 151 252 0
181 -149 -253 0
-181 149 -253 0
-181 -149 253 0
181 149 253 0
187 -155 -254 0
155 -187 -254 0
-187 -155 254 0
155 187 254 0
185 -153 -255 0
153 -185 -255 0
-185 -153 255 0
185 153 255 0
255 256 0
254 256 0
253 256 0
252 256 0
251 256 0
250 256 0
249 256 0
248 256 0
247 256 0
246 256 0
245 256 0
244 256 0
243 256 0
242 256 0
241 256 0
240 256 0
239 256 0
238 256 0
237 256 0
236 256 0
235 256 0
234 256 0
233 256 0
232 256 0
231 256 0
230 256 0
229 256 0
228 256 0
227 256 0
226 256 0
225 256 0
224 256 0
223 256 0
222 256 0
221 256 0
220 256 0
219 256 0
218 256 0
217 256 0
216 256 0
215 256 0
214 256 0
213 256 0
212 256 0
211 256 0
210 256 0
209 256 0
208 256 0
-210 -215 -224 -212 -213 -218 -223 -208 -219 -217 -221 -214 -225 -222 -216 -211 -220 -209 -226 -227 -228 -229 -230 -231 -232 -233 -234 -235 -236 -237 -238 -239 -240 -241 -242 -243 -244 -245 -246 -247 -248 -249 -250 -251 -252 -253 -254 -255 -256 0
-143 257 0
-145 -143 257 0
-145 257 0
143 145 -257 0
-143 258 0
-145 -143 258 0
-147 -257 258 0
-147 258 0
-145 258 0
143 147 145 -258 0
143 147 145 257 -258 0
149 259 0
258 259 0
-149 -258 -259 0
-143 260 0
-145 -143 260 0
-147 -257 260 0
-147 260 0
-149 -258 260 0
-145 260 0
-149 260 0
143 147 145 149 -260 0
143 147 145 149 257 -260 0
143 147 145 149 258 -260 0
143 147 145 149 257 258 -260 0
-143 261 0
-145 -143 261 0
-147 -257 261 0
-147 261 0
-151 261 0
-151 -260 261 0
-149 -258 261 0
-145 261 0
-149 261 0
143 147 151 145 149 -261 0
143 147 151 145 149 257 -261 0
143 147 151 145 149 260 -261 0
143 147 151 145 149 257 260 -261 0
143 147 151 145 149 258 -261 0
143 147 151 145 149 257 258 -261 0
143 147 151 145 149 258 260 -261 0
143 147 151 145 149 257 258 260 -261 0
-153 262 0
-143 262 0
-145 -143 262 0
-153 -261 262 0
-147 -257 262 0
-147 262 0
-151 262 0
-151 -260 262 0
259 262 0
-145 262 0
-149 262 0
153 143 147 151 145 149 -259 -262 0
153 143 147 151 145 149 -259 261 -262 0
153 143 147 151 145 149 257 -259 -262 0
153 143 147 151 145 149 257 -259 261 -262 0
153 143 147 151 145 149 -259 260 -262 0
153 143 147 151 145 149 -259 260 261 -262 0
153 143 147 151 145 149 257 -259 260 -262 0
153 143 147 151 145 149 257 -259 260 261 -262 0
155 263 0
262 263 0
-155 -262 -263 0
-143 264 0
-145 -143 264 0
-147 -257 264 0
-147 264 0
-149 -258 264 0
-145 264 0
-149 264 0
143 147 145 149 -264 0
143 147 145 149 257 -264 0
143 147 145 149 258 -264 0
143 147 145 149 257 258 -264 0
-143 265 0
-145 -143 265 0
-145 265 0
143 145 -265 0
-143 266 0
-145 -143 266 0
-147 -265 266 0
-147 266 0
-151 266 0
-151 -264 266 0
-149 -258 266 0
-145 266 0
-149 266 0
143 147 151 145 149 -266 0
143 147 151 145 149 265 -266 0
143 147 151 145 149 264 -266 0
143 147 151 145 149 264 265 -266 0
143 147 151 145 149 258 -266 0
143 147 151 145 149 258 265 -266 0
143 147 151 145 149 258 264 -266 0
143 147 151 145 149 258 264 265 -266 0
-155 267 0
-153 267 0
-143 267 0
-145 -143 267 0
-153 -266 267 0
-147 -265 267 0
-147 267 0
-151 267 0
-151 -264 267 0
263 267 0
259 267 0
-145 267 0
-149 267 0
155 153 143 147 151 145 149 -259 -263 -267 0
155 153 143 147 151 145 149 -259 -263 266 -267 0
155 153 143 147 151 145 149 -259 -263 265 -267 0
155 153 143 147 151 145 149 -259 -263 265 266 -267 0
155 153 143 147 151 145 149 -259 -263 264 -267 0
155 153 143 147 151 145 149 -259 -263 264 266 -267 0
155 153 143 147 151 145 149 -259 -263 264 265 -267 0
155 153 143 147 151 145 149 -259 -263 264 265 266 -267 0
157 268 0
267 268 0
-157 -267 -268 0
149 269 0
258 269 0
-149 -258 -269 0
155 270 0
262 270 0
-155 -262 -270 0
-143 271 0
-145 -143 271 0
-147 -265 271 0
-147 271 0
-149 -258 271 0
-145 271 0
-149 271 0
143 147 145 149 -271 0
143 147 145 149 265 -271 0
143 147 145 149 258 -271 0
143 147 145 149 258 265 -271 0
-143 272 0
-145 -143 272 0
-145 272 0
143 145 -272 0
-143 273 0
-145 -143 273 0
-147 -272 273 0
-147 273 0
-151 273 0
-151 -271 273 0
-149 -258 273 0
-145 273 0
-149 273 0
143 147 151 145 149 -273 0
143 147 151 145 149 272 -273 0
143 147 151 145 149 271 -273 0
143 147 151 145 149 271 272 -273 0
143 147 151 145 149 258 -273 0
143 147 151 145 149 258 272 -273 0
143 147 151 145 149 258 271 -273 0
143 147 151 145 149 258 271 272 -273 0
-155 274 0
-157 274 0
-153 274 0
-143 274 0
-145 -143 274 0
-153 -273 274 0
-147 -272 274 0
-147 274 0
-151 274 0
-151 -271 274 0
270 274 0
269 274 0
268 274 0
-145 274 0
-149 274 0
155 157 153 143 147 151 145 149 -268 -269 -270 -274 0
155 157 153 143 147 151 145 149 -268 -269 -270 273 -274 0
155 157 153 143 147 151 145 149 -268 -269 -270 272 -274 0
155 157 153 143 147 151 145 149 -268 -269 -270 272 273 -274 0
155 157 153 143 147 151 145 149 -268 -269 -270 271 -274 0
155 157 153 143 147 151 145 149 -268 -269 -270 271 273 -274 0
155 157 153 143 147 151 145 149 -268 -269 -270 271 272 -274 0
155 157 153 143 147 151 145 149 -268 -269 -270 271 272 273 -274 0
159 275 0
274 275 0
-159 -274 -275 0
-155 276 0
-157 276 0
-159 276 0
-153 276 0
-143 276 0
-145 -143 276 0
-153 -273 276 0
-147 -272 276 0
-147 276 0
-151 276 0
-151 -271 276 0
270 276 0
269 276 0
268 276 0
275 276 0
-145 276 0
-149 276 0
155 157 159 153 143 147 151 145 149 -268 -269 -270 -275 -276 0
155 157 159 153 143 147 151 145 149 -268 -269 -270 273 -275 -276 0
155 157 159 153 143 147 151 145 149 -268 -269 -270 272 -275 -276 0
155 157 159 153 143 147 151 145 149 -268 -269 -270 272 273 -275 -276 0
155 157 159 153 143 147 151 145 149 -268 -269 -270 271 -275 -276 0
155 157 159 153 143 147 151 145 149 -268 -269 -270 271 273 -275 -276 0
155 157 159 153 143 147 151 145 149 -268 -269 -270 271 272 -275 -276 0
155 157 159 153 143 147 151 145 149 -268 -269 -270 271 272 273 -275 -276 0
161 277 0
276 277 0
-161 -276 -277 0
-155 278 0
-157 278 0
-159 278 0
-161 278 0
-153 278 0
-143 278 0
-145 -143 278 0
-153 -273 278 0
-147 -272 278 0
-147 278 0
-151 278 0
-151 -271 278 0
270 278 0
269 278 0
277 278 0
268 278 0
275 278 0
-145 278 0
-149 278 0
155 157 159 161 153 143 147 151 145 149 -268 -269 -270 -275 -277 -278 0
155 157 159 161 153 143 147 151 145 149 -268 -269 -270 273 -275 -277 -278 0
155 157 159 161 153 143 147 151 145 149 -268 -269 -270 272 -275 -277 -278 0
155 157 159 161 153 143 147 151 145 149 -268 -269 -270 272 273 -275 -277 -278 0
155 157 159 161 153 143 147 151 145 149 -268 -269 -270 271 -275 -277 -278 0
155 157 159 161 153 143 147 151 145 149 -268 -269 -270 271 273 -275 -277 -278 0
155 157 159 161 153 143 147 151 145 149 -268 -269 -270 271 272 -275 -277 -278 0
155 157 159 161 153 143 147 151 145 149 -268 -269 -270 271 272 273 -275 -277 -278 0
163 279 0
278 279 0
-163 -278 -279 0
-155 280 0
-157 280 0
-159 280 0
-161 280 0
-163 280 0
-153 280 0
-143 280 0
-145 -143 280 0
-153 -273 280 0
-147 -272 280 0
-147 280 0
-151 280 0
-151 -271 280 0
270 280 0
279 280 0
269 280 0
277 280 0
268 280 0
275 280 0
-145 280 0
-149 280 0
155 157 159 161 163 153 143 147 151 145 149 -268 -269 -270 -275 -277 -279 -280 0
155 157 159 161 163 153 143 147 151 145 149 -268 -269 -270 273 -275 -277 -279 -280 0
155 157 159 161 163 153 143 147 151 145 149 -268 -269 -270 272 -275 -277 -279 -280 0
155 157 159 161 163 153 143 147 151 145 149 -268 -269 -270 272 273 -275 -277 -279 -280 0
155 157 159 161 163 153 143 147 151 145 149 -268 -269 -270 271 -275 -277 -279 -280 0
155 157 159 161 163 153 143 147 151 145 149 -268 -269 -270 271 273 -275 -277 -279 -280 0
155 157 159 161 163 153 143 147 151 145 149 -268 -269 -270 271 272 -275 -277 -279 -280 0
155 157 159 161 163 153 143 147 151 145 149 -268 -269 -270 271 272 273 -275 -277 -279 -280 0
165 281 0
280 281 0
-165 -280 -281 0
157 282 0
267 282 0
-157 -267 -282 0
-155 283 0
-157 283 0
-159 283 0
-161 283 0
-163 283 0
-165 283 0
-153 283 0
-143 283 0
-145 -143 283 0
-153 -273 283 0
-147 -272 283 0
-147 283 0
-151 283 0
-151 -271 283 0
270 283 0
279 283 0
269 283 0
277 283 0
282 283 0
281 283 0
275 283 0
-145 283 0
-149 283 0
155 157 159 161 163 165 153 143 147 151 145 149 -269 -270 -275 -277 -279 -281 -282 -283 0
155 157 159 161 163 165 153 143 147 151 145 149 -269 -270 273 -275 -277 -279 -281 -282 -283 0
155 157 159 161 163 165 153 143 147 151 145 149 -269 -270 272 -275 -277 -279 -281 -282 -283 0
155 157 159 161 163 165 153 143 147 151 145 149 -269 -270 272 273 -275 -277 -279 -281 -282 -283 0
155 157 159 161 163 165 153 143 147 151 145 149 -269 -270 271 -275 -277 -279 -281 -282 -283 0
155 157 159 161 163 165 153 143 147 151 145 149 -269 -270 271 273 -275 -277 -279 -281 -282 -283 0
155 157 159 161 163 165 153 143 147 151 145 149 -269 -270 271 272 -275 -277 -279 -281 -282 -283 0
155 157 159 161 163 165 153 143 147 151 145 149 -269 -270 271 272 273 -275 -277 -279 -281 -282 -283 0
167 284 0
283 284 0
-167 -283 -284 0
161 285 0
276 285 0
-161 -276 -285 0
149 286 0
258 286 0
-149 -258 -286 0
163 287 0
278 287 0
-163 -278 -287 0
155 288 0
262 288 0
-155 -262 -288 0
-143 289 0
-145 -143 289 0
-147 -272 289 0
-147 289 0
-149 -258 289 0
-145 289 0
-149 289 0
143 147 145 149 -289 0
143 147 145 149 272 -289 0
143 147 145 149 258 -289 0
143 147 145 149 258 272 -289 0
-143 290 0
-145 -143 290 0
-145 290 0
143 145 -290 0
-143 291 0
-145 -143 291 0
-147 -290 291 0
-147 291 0
-151 291 0
-151 -289 291 0
-149 -258 291 0
-145 291 0
-149 291 0
143 147 151 145 149 -291 0
143 147 151 145 149 290 -291 0
143 147 151 145 149 289 -291 0
143 147 151 145 149 289 290 -291 0
143 147 151 145 149 258 -291 0
143 147 151 145 149 258 290 -291 0
143 147 151 145 149 258 289 -291 0
143 147 151 145 149 258 289 290 -291 0
-155 292 0
-157 292 0
-159 292 0
-161 292 0
-163 292 0
-165 292 0
-167 292 0
-153 292 0
-143 292 0
-145 -143 292 0
-153 -291 292 0
-147 -290 292 0
-147 292 0
-151 292 0
-151 -289 292 0
288 292 0
287 292 0
286 292 0
285 292 0
284 292 0
282 292 0
281 292 0
275 292 0
-145 292 0
-149 292 0
155 157 159 161 163 165 167 153 143 147 151 145 149 -275 -281 -282 -284 -285 -286 -287 -288 -292 0
155 157 159 161 163 165 167 153 143 147 151 145 149 -275 -281 -282 -284 -285 -286 -287 -288 291 -292 0
155 157 159 161 163 165 167 153 143 147 151 145 149 -275 -281 -282 -284 -285 -286 -287 -288 290 -292 0
155 157 159 161 163 165 167 153 143 147 151 145 149 -275 -281 -282 -284 -285 -286 -287 -288 290 291 -292 0
155 157 159 161 163 165 167 153 143 147 151 145 149 -275 -281 -282 -284 -285 -286 -287 -288 289 -292 0
155 157 159 161 163 165 167 153 143 147 151 145 149 -275 -281 -282 -284 -285 -286 -287 -288 289 291 -292 0
155 157 159 161 163 165 167 153 143 147 151 145 149 -275 -281 -282 -284 -285 -286 -287 -288 289 290 -292 0
155 157 159 161 163 165 167 153 143 147 151 145 149 -275 -281 -282 -284 -285 -286 -287 -288 289 290 291 -292 0
169 -292 -293 0
-169 292 -293 0
293 -169 -292 0
169 292 293 0
-143 294 0
-145 294 0
-147 294 0
-149 294 0
-151 294 0
-153 294 0
-155 294 0
-157 294 0
-159 294 0
-161 294 0
-163 294 0
-165 294 0
-167 294 0
-169 294 0
-171 294 0
-173 294 0
143 145 147 149 151 153 155 157 159 161 163 165 167 169 171 173 -294 0
293 -294 -295 0
169 294 -295 0
-293 -294 295 0
-169 294 295 0
169 293 -295 0
-169 -293 295 0
201 -295 -296 0
-201 295 -296 0
296 -201 -295 0
201 295 296 0
99 297 0
97 297 0
101 297 0
85 297 0
89 297 0
81 297 0
79 297 0
83 297 0
91 297 0
93 297 0
87 297 0
95 297 0
-99 -97 -101 -85 -89 -81 -79 -83 -91 -93 -87 -95 -297 0
103 -297 -298 0
-103 297 -298 0
298 -103 -297 0
103 297 298 0
-1 299 0
294 299 0
1 -294 -299 0
103 -299 -300 0
298 299 -300 0
-103 -299 300 0
-298 299 300 0
103 298 -300 0
-103 -298 300 0
135 -300 -301 0
-135 300 -301 0
301 -135 -300 0
135 300 301 0
15 302 0
17 302 0
19 302 0
21 302 0
23 302 0
-15 -17 -19 -21 -23 -302 0
25 -302 -303 0
-25 302 -303 0
303 -25 -302 0
25 302 303 0
1 304 0
294 304 0
-1 -294 -304 0
25 -304 -305 0
303 304 -305 0
-25 -304 305 0
-303 304 305 0
25 303 -305 0
-25 -303 305 0
57 -305 -306 0
-57 305 -306 0
306 -57 -305 0
57 305 306 0
155 -262 -307 0
-155 262 -307 0
307 -155 -262 0
155 262 307 0
-294 307 -308 0
155 294 -308 0
-294 -307 308 0
-155 294 308 0
155 307 -308 0
-155 -307 308 0
187 -308 -309 0
-187 308 -309 0
309 -187 -308 0
187 308 309 0
85 310 0
81 310 0
79 310 0
83 310 0
87 310 0
-85 -81 -79 -83 -87 -310 0
89 -310 -311 0
-89 310 -311 0
311 -89 -310 0
89 310 311 0
89 -299 -312 0
299 311 -312 0
-89 -299 312 0
299 -311 312 0
89 311 -312 0
-89 -311 312 0
121 -312 -313 0
-121 312 -313 0
313 -121 -312 0
121 312 313 0
85 314 0
89 314 0
81 314 0
79 314 0
83 314 0
87 314 0
-85 -89 -81 -79 -83 -87 -314 0
91 -314 -315 0
-91 314 -315 0
315 -91 -314 0
91 314 315 0
91 -299 -316 0
299 315 -316 0
-91 -299 316 0
299 -315 316 0
91 315 -316 0
-91 -315 316 0
123 -316 -317 0
-123 316 -317 0
317 -123 -316 0
123 316 317 0
153 -291 -318 0
-153 291 -318 0
318 -153 -291 0
153 291 318 0
-294 318 -319 0
153 294 -319 0
-294 -318 319 0
-153 294 319 0
153 318 -319 0
-153 -318 319 0
185 -319 -320 0
-185 319 -320 0
320 -185 -319 0
185 319 320 0
159 -274 -321 0
-159 274 -321 0
321 -159 -274 0
159 274 321 0
-294 321 -322 0
159 294 -322 0
-294 -321 322 0
-159 294 322 0
159 321 -322 0
-159 -321 322 0
191 -322 -323 0
-191 322 -323 0
323 -191 -322 0
191 322 323 0
151 -289 -324 0
-151 289 -324 0
324 -151 -289 0
151 289 324 0
-294 324 -325 0
151 294 -325 0
-294 -324 325 0
-151 294 325 0
151 324 -325 0
-151 -324 325 0
183 -325 -326 0
-183 325 -326 0
326 -183 -325 0
183 325 326 0
27 327 0
35 327 0
25 327 0
15 327 0
17 327 0
37 327 0
29 327 0
19 327 0
21 327 0
33 327 0
31 327 0
23 327 0
-27 -35 -25 -15 -17 -37 -29 -19 -21 -33 -31 -23 -327 0
39 -327 -328 0
-39 327 -328 0
328 -39 -327 0
39 327 328 0
39 -304 -329 0
304 328 -329 0
-39 -304 329 0
304 -328 329 0
39 328 -329 0
-39 -328 329 0
71 -329 -330 0
-71 329 -330 0
330 -71 -329 0
71 329 330 0
81 331 0
79 331 0
-81 -79 -331 0
83 -331 -332 0
-83 331 -332 0
332 -83 -331 0
83 331 332 0
83 -299 -333 0
299 332 -333 0
-83 -299 333 0
299 -332 333 0
83 332 -333 0
-83 -332 333 0
115 -333 -334 0
-115 333 -334 0
334 -115 -333 0
115 333 334 0
99 335 0
97 335 0
101 335 0
103 335 0
85 335 0
89 335 0
81 335 0
79 335 0
83 335 0
107 335 0
91 335 0
93 335 0
87 335 0
105 335 0
95 335 0
-99 -97 -101 -103 -85 -89 -81 -79 -83 -107 -91 -93 -87 -105 -95 -335 0
109 -335 -336 0
-109 335 -336 0
336 -109 -335 0
109 335 336 0
109 -299 -337 0
299 336 -337 0
-109 -299 337 0
299 -336 337 0
109 336 -337 0
-109 -336 337 0
141 -337 -338 0
-141 337 -338 0
338 -141 -337 0
141 337 338 0
85 339 0
89 339 0
81 339 0
79 339 0
83 339 0
91 339 0
93 339 0
87 339 0
-85 -89 -81 -79 -83 -91 -93 -87 -339 0
95 -339 -340 0
-95 339 -340 0
340 -95 -339 0
95 339 340 0
95 -299 -341 0
299 340 -341 0
-95 -299 341 0
299 -340 341 0
95 340 -341 0
-95 -340 341 0
127 -341 -342 0
-127 341 -342 0
342 -127 -341 0
127 341 342 0
81 343 0
79 343 0
83 343 0
-81 -79 -83 -343 0
85 -343 -344 0
-85 343 -344 0
344 -85 -343 0
85 343 344 0
85 -299 -345 0
299 344 -345 0
-85 -299 345 0
299 -344 345 0
85 344 -345 0
-85 -344 345 0
117 -345 -346 0
-117 345 -346 0
346 -117 -345 0
117 345 346 0
27 347 0
35 347 0
25 347 0
41 347 0
15 347 0
17 347 0
43 347 0
37 347 0
39 347 0
29 347 0
19 347 0
21 347 0
33 347 0
31 347 0
23 347 0
-27 -35 -25 -41 -15 -17 -43 -37 -39 -29 -19 -21 -33 -31 -23 -347 0
45 -347 -348 0
-45 347 -348 0
348 -45 -347 0
45 347 348 0
45 -304 -349 0
304 348 -349 0
-45 -304 349 0
304 -348 349 0
45 348 -349 0
-45 -348 349 0
77 -349 -350 0
-77 349 -350 0
350 -77 -349 0
77 349 350 0
85 351 0
81 351 0
79 351 0
83 351 0
-85 -81 -79 -83 -351 0
87 -351 -352 0
-87 351 -352 0
352 -87 -351 0
87 351 352 0
87 -299 -353 0
299 352 -353 0
-87 -299 353 0
299 -352 353 0
87 352 -353 0
-87 -352 353 0
119 -353 -354 0
-119 353 -354 0
354 -119 -353 0
119 353 354 0
27 355 0
35 355 0
25 355 0
41 355 0
15 355 0
17 355 0
37 355 0
39 355 0
29 355 0
19 355 0
21 355 0
33 355 0
31 355 0
23 355 0
-27 -35 -25 -41 -15 -17 -37 -39 -29 -19 -21 -33 -31 -23 -355 0
43 -355 -356 0
-43 355 -356 0
356 -43 -355 0
43 355 356 0
43 -304 -357 0
304 356 -357 0
-43 -304 357 0
304 -356 357 0
43 356 -357 0
-43 -356 357 0
75 -357 -358 0
-75 357 -358 0
358 -75 -357 0
75 357 358 0
85 359 0
89 359 0
81 359 0
79 359 0
83 359 0
91 359 0
87 359 0
-85 -89 -81 -79 -83 -91 -87 -359 0
93 -359 -360 0
-93 359 -360 0
360 -93 -359 0
93 359 360 0
93 -299 -361 0
299 360 -361 0
-93 -299 361 0
299 -360 361 0
93 360 -361 0
-93 -360 361 0
125 -361 -362 0
-125 361 -362 0
362 -125 -361 0
125 361 362 0
143 175 294 -363 0
143 -175 -294 -363 0
-175 -143 294 -363 0
175 -143 -294 -363 0
-175 -143 -294 363 0
175 -143 294 363 0
143 175 -294 363 0
143 -175 294 363 0
27 364 0
35 364 0
25 364 0
15 364 0
17 364 0
37 364 0
39 364 0
29 364 0
19 364 0
21 364 0
33 364 0
31 364 0
23 364 0
-27 -35 -25 -15 -17 -37 -39 -29 -19 -21 -33 -31 -23 -364 0
41 -364 -365 0
-41 364 -365 0
365 -41 -364 0
41 364 365 0
41 -304 -366 0
304 365 -366 0
-41 -304 366 0
304 -365 366 0
41 365 -366 0
-41 -365 366 0
73 -366 -367 0
-73 366 -367 0
367 -73 -366 0
73 366 367 0
111 79 299 -368 0
-111 -79 299 -368 0
-111 79 -299 -368 0
111 -79 -299 -368 0
-111 -79 -299 368 0
111 79 -299 368 0
111 -79 299 368 0
-111 79 299 368 0
85 369 0
89 369 0
81 369 0
79 369 0
83 369 0
91 369 0
93 369 0
87 369 0
95 369 0
-85 -89 -81 -79 -83 -91 -93 -87 -95 -369 0
97 -369 -370 0
-97 369 -370 0
370 -97 -369 0
97 369 370 0
97 -299 -371 0
299 370 -371 0
-97 -299 371 0
299 -370 371 0
97 370 -371 0
-97 -370 371 0
129 -371 -372 0
-129 371 -372 0
372 -129 -371 0
129 371 372 0
169 373 0
292 373 0
-169 -292 -373 0
-155 374 0
-157 374 0
-159 374 0
-161 374 0
-163 374 0
-165 374 0
-167 374 0
-153 374 0
-143 374 0
-169 374 0
-145 -143 374 0
-153 -291 374 0
-147 -290 374 0
-147 374 0
-151 374 0
-151 -289 374 0
288 374 0
287 374 0
286 374 0
285 374 0
284 374 0
373 374 0
282 374 0
281 374 0
275 374 0
-145 374 0
-149 374 0
155 157 159 161 163 165 167 153 143 169 147 151 145 149 -275 -281 -282 -284 -285 -286 -287 -288 -373 -374 0
155 157 159 161 163 165 167 153 143 169 147 151 145 149 -275 -281 -282 -284 -285 -286 -287 -288 291 -373 -374 0
155 157 159 161 163 165 167 153 143 169 147 151 145 149 -275 -281 -282 -284 -285 -286 -287 -288 290 -373 -374 0
155 157 159 161 163 165 167 153 143 169 147 151 145 149 -275 -281 -282 -284 -285 -286 -287 -288 290 291 -373 -374 0
155 157 159 161 163 165 167 153 143 169 147 151 145 149 -275 -281 -282 -284 -285 -286 -287 -288 289 -373 -374 0
155 157 159 161 163 165 167 153 143 169 147 151 145 149 -275 -281 -282 -284 -285 -286 -287 -288 289 291 -373 -374 0
155 157 159 161 163 165 167 153 143 169 147 151 145 149 -275 -281 -282 -284 -285 -286 -287 -288 289 290 -373 -374 0
155 157 159 161 163 165 167 153 143 169 147 151 145 149 -275 -281 -282 -284 -285 -286 -287 -288 289 290 291 -373 -374 0
171 375 0
374 375 0
-171 -374 -375 0
-155 376 0
-157 376 0
-159 376 0
-161 376 0
-163 376 0
-165 376 0
-167 376 0
-153 376 0
-143 376 0
-171 376 0
-169 376 0
-145 -143 376 0
-153 -291 376 0
-147 -290 376 0
-147 376 0
-151 376 0
-151 -289 376 0
288 376 0
287 376 0
286 376 0
285 376 0
284 376 0
375 376 0
373 376 0
282 376 0
281 376 0
275 376 0
-145 376 0
-149 376 0
155 157 159 161 163 165 167 153 143 171 169 147 151 145 149 -275 -281 -282 -284 -285 -286 -287 -288 -373 -375 -376 0
155 157 159 161 163 165 167 153 143 171 169 147 151 145 149 -275 -281 -282 -284 -285 -286 -287 -288 291 -373 -375 -376 0
155 157 159 161 163 165 167 153 143 171 169 147 151 145 149 -275 -281 -282 -284 -285 -286 -287 -288 290 -373 -375 -376 0
155 157 159 161 163 165 167 153 143 171 169 147 151 145 149 -275 -281 -282 -284 -285 -286 -287 -288 290 291 -373 -375 -376 0
155 157 159 161 163 165 167 153 143 171 169 147 151 145 149 -275 -281 -282 -284 -285 -286 -287 -288 289 -373 -375 -376 0
155 157 159 161 163 165 167 153 143 171 169 147 151 145 149 -275 -281 -282 -284 -285 -286 -287 -288 289 291 -373 -375 -376 0
155 157 159 161 163 165 167 153 143 171 169 147 151 145 149 -275 -281 -282 -284 -285 -286 -287 -288 289 290 -373 -375 -376 0
155 157 159 161 163 165 167 153 143 171 169 147 151 145 149 -275 -281 -282 -284 -285 -286 -287 -288 289 290 291 -373 -375 -376 0
173 -376 -377 0
-173 376 -377 0
377 -173 -376 0
173 376 377 0
-294 377 -378 0
173 294 -378 0
-294 -377 378 0
-173 294 378 0
173 377 -378 0
-173 -377 378 0
205 -378 -379 0
-205 378 -379 0
379 -205 -378 0
205 378 379 0
161 -276 -380 0
-161 276 -380 0
380 -161 -276 0
161 276 380 0
-294 380 -381 0
161 294 -381 0
-294 -380 381 0
-161 294 381 0
161 380 -381 0
-161 -380 381 0
193 -381 -382 0
-193 381 -382 0
382 -193 -381 0
193 381 382 0
99 383 0
97 383 0
85 383 0
89 383 0
81 383 0
79 383 0
83 383 0
91 383 0
93 383 0
87 383 0
95 383 0
-99 -97 -85 -89 -81 -79 -83 -91 -93 -87 -95 -383 0
101 -383 -384 0
-101 383 -384 0
384 -101 -383 0
101 383 384 0
101 -299 -385 0
299 384 -385 0
-101 -299 385 0
299 -384 385 0
101 384 -385 0
-101 -384 385 0
133 -385 -386 0
-133 385 -386 0
386 -133 -385 0
133 385 386 0
99 387 0
97 387 0
101 387 0
103 387 0
85 387 0
89 387 0
81 387 0
79 387 0
83 387 0
91 387 0
93 387 0
87 387 0
95 387 0
-99 -97 -101 -103 -85 -89 -81 -79 -83 -91 -93 -87 -95 -387 0
105 -387 -388 0
-105 387 -388 0
388 -105 -387 0
105 387 388 0
105 -299 -389 0
299 388 -389 0
-105 -299 389 0
299 -388 389 0
105 388 -389 0
-105 -388 389 0
137 -389 -390 0
-137 389 -390 0
390 -137 -389 0
137 389 390 0
97 391 0
85 391 0
89 391 0
81 391 0
79 391 0
83 391 0
91 391 0
93 391 0
87 391 0
95 391 0
-97 -85 -89 -81 -79 -83 -91 -93 -87 -95 -391 0
99 -391 -392 0
-99 391 -392 0
392 -99 -391 0
99 391 392 0
99 -299 -393 0
299 392 -393 0
-99 -299 393 0
299 -392 393 0
99 392 -393 0
-99 -392 393 0
131 -393 -394 0
-131 393 -394 0
394 -131 -393 0
131 393 394 0
27 395 0
25 395 0
15 395 0
17 395 0
29 395 0
19 395 0
21 395 0
33 395 0
31 395 0
23 395 0
-27 -25 -15 -17 -29 -19 -21 -33 -31 -23 -395 0
35 -395 -396 0
-35 395 -396 0
396 -35 -395 0
35 395 396 0
35 -304 -397 0
304 396 -397 0
-35 -304 397 0
304 -396 397 0
35 396 -397 0
-35 -396 397 0
67 -397 -398 0
-67 397 -398 0
398 -67 -397 0
67 397 398 0
27 399 0
25 399 0
15 399 0
17 399 0
29 399 0
19 399 0
21 399 0
23 399 0
-27 -25 -15 -17 -29 -19 -21 -23 -399 0
31 -399 -400 0
-31 399 -400 0
400 -31 -399 0
31 399 400 0
31 -304 -401 0
304 400 -401 0
-31 -304 401 0
304 -400 401 0
31 400 -401 0
-31 -400 401 0
63 -401 -402 0
-63 401 -402 0
402 -63 -401 0
63 401 402 0
47 15 304 -403 0
-15 -47 304 -403 0
-47 15 -304 -403 0
47 -15 -304 -403 0
-15 -47 -304 403 0
47 15 -304 403 0
47 -15 304 403 0
-47 15 304 403 0
-79 81 -404 0
-81 79 -404 0
-81 -79 404 0
79 81 404 0
81 -299 -405 0
299 -404 -405 0
-81 -299 405 0
299 404 405 0
81 -404 -405 0
-81 404 405 0
113 -405 -406 0
-113 405 -406 0
406 -113 -405 0
113 405 406 0
165 -280 -407 0
-165 280 -407 0
407 -165 -280 0
165 280 407 0
-294 407 -408 0
165 294 -408 0
-294 -407 408 0
-165 294 408 0
165 407 -408 0
-165 -407 408 0
197 -408 -409 0
-197 408 -409 0
409 -197 -408 0
197 408 409 0
167 -283 -410 0
-167 283 -410 0
410 -167 -283 0
167 283 410 0
-294 410 -411 0
167 294 -411 0
-294 -410 411 0
-167 294 411 0
167 410 -411 0
-167 -410 411 0
199 -411 -412 0
-199 411 -412 0
412 -199 -411 0
199 411 412 0
163 -278 -413 0
-163 278 -413 0
413 -163 -278 0
163 278 413 0
-294 413 -414 0
163 294 -414 0
-294 -413 414 0
-163 294 414 0
163 413 -414 0
-163 -413 414 0
195 -414 -415 0
-195 414 -415 0
415 -195 -414 0
195 414 415 0
15 416 0
17 416 0
-15 -17 -416 0
19 -416 -417 0
-19 416 -417 0
417 -19 -416 0
19 416 417 0
19 -304 -418 0
304 417 -418 0
-19 -304 418 0
304 -417 418 0
19 417 -418 0
-19 -417 418 0
51 -418 -419 0
-51 418 -419 0
419 -51 -418 0
51 418 419 0
171 -374 -420 0
-171 374 -420 0
420 -171 -374 0
171 374 420 0
-294 420 -421 0
171 294 -421 0
-294 -420 421 0
-171 294 421 0
171 420 -421 0
-171 -420 421 0
203 -421 -422 0
-203 421 -422 0
422 -203 -421 0
203 421 422 0
-9 423 0
294 423 0
9 -294 -423 0
-1 423 -424 0
1 -423 -424 0
-1 -423 424 0
1 423 424 0
15 425 0
17 425 0
19 425 0
-15 -17 -19 -425 0
21 -425 -426 0
-21 425 -426 0
426 -21 -425 0
21 425 426 0
21 -304 -427 0
304 426 -427 0
-21 -304 427 0
304 -426 427 0
21 426 -427 0
-21 -426 427 0
53 -427 -428 0
-53 427 -428 0
428 -53 -427 0
53 427 428 0
27 429 0
25 429 0
15 429 0
17 429 0
29 429 0
19 429 0
21 429 0
31 429 0
23 429 0
-27 -25 -15 -17 -29 -19 -21 -31 -23 -429 0
33 -429 -430 0
-33 429 -430 0
430 -33 -429 0
33 429 430 0
33 -304 -431 0
304 430 -431 0
-33 -304 431 0
304 -430 431 0
33 430 -431 0
-33 -430 431 0
65 -431 -432 0
-65 431 -432 0
432 -65 -431 0
65 431 432 0
149 -258 -433 0
-149 258 -433 0
433 -149 -258 0
149 258 433 0
-294 433 -434 0
149 294 -434 0
-294 -433 434 0
-149 294 434 0
149 433 -434 0
-149 -433 434 0
181 -434 -435 0
-181 434 -435 0
435 -181 -434 0
181 434 435 0
27 436 0
35 436 0
25 436 0
15 436 0
17 436 0
29 436 0
19 436 0
21 436 0
33 436 0
31 436 0
23 436 0
-27 -35 -25 -15 -17 -29 -19 -21 -33 -31 -23 -436 0
37 -436 -437 0
-37 436 -437 0
437 -37 -436 0
37 436 437 0
37 -304 -438 0
304 437 -438 0
-37 -304 438 0
304 -437 438 0
37 437 -438 0
-37 -437 438 0
69 -438 -439 0
-69 438 -439 0
439 -69 -438 0
69 438 439 0
15 440 0
17 440 0
19 440 0
21 440 0
-15 -17 -19 -21 -440 0
23 -440 -441 0
-23 440 -441 0
441 -23 -440 0
23 440 441 0
23 -304 -442 0
304 441 -442 0
-23 -304 442 0
304 -441 442 0
23 441 -442 0
-23 -441 442 0
55 -442 -443 0
-55 442 -443 0
443 -55 -442 0
55 442 443 0
157 -267 -444 0
-157 267 -444 0
444 -157 -267 0
157 267 444 0
-294 444 -445 0
157 294 -445 0
-294 -444 445 0
-157 294 445 0
157 444 -445 0
-157 -444 445 0
189 -445 -446 0
-189 445 -446 0
446 -189 -445 0
189 445 446 0
27 447 0
25 447 0
15 447 0
17 447 0
19 447 0
21 447 0
23 447 0
-27 -25 -15 -17 -19 -21 -23 -447 0
29 -447 -448 0
-29 447 -448 0
448 -29 -447 0
29 447 448 0
29 -304 -449 0
304 448 -449 0
-29 -304 449 0
304 -448 449 0
29 448 -449 0
-29 -448 449 0
61 -449 -450 0
-61 449 -450 0
450 -61 -449 0
61 449 450 0
-143 145 -451 0
143 -145 -451 0
-145 -143 451 0
143 145 451 0
-294 451 -452 0
145 294 -452 0
-294 -451 452 0
-145 294 452 0
145 451 -452 0
-145 -451 452 0
177 -452 -453 0
-177 452 -453 0
453 -177 -452 0
177 452 453 0
147 -290 -454 0
-147 290 -454 0
454 -147 -290 0
147 290 454 0
-294 454 -455 0
147 294 -455 0
-294 -454 455 0
-147 294 455 0
147 454 -455 0
-147 -454 455 0
179 -455 -456 0
-179 455 -456 0
456 -179 -455 0
179 455 456 0
99 457 0
97 457 0
101 457 0
103 457 0
85 457 0
89 457 0
81 457 0
79 457 0
83 457 0
91 457 0
93 457 0
87 457 0
105 457 0
95 457 0
-99 -97 -101 -103 -85 -89 -81 -79 -83 -91 -93 -87 -105 -95 -457 0
107 -457 -458 0
-107 457 -458 0
458 -107 -457 0
107 457 458 0
107 -299 -459 0
299 458 -459 0
-107 -299 459 0
299 -458 459 0
107 458 -459 0
-107 -458 459 0
139 -459 -460 0
-139 459 -460 0
460 -139 -459 0
139 459 460 0
-15 17 -461 0
-17 15 -461 0
-15 -17 461 0
17 15 461 0
17 -304 -462 0
304 -461 -462 0
-17 -304 462 0
304 461 462 0
17 -461 -462 0
-17 461 462 0
49 -462 -463 0
-49 462 -463 0
463 -49 -462 0
49 462 463 0
25 464 0
15 464 0
17 464 0
19 464 0
21 464 0
23 464 0
-25 -15 -17 -19 -21 -23 -464 0
27 -464 -465 0
-27 464 -465 0
465 -27 -464 0
27 464 465 0
27 -304 -466 0
304 465 -466 0
-27 -304 466 0
304 -465 466 0
27 465 -466 0
-27 -465 466 0
59 -466 -467 0
-59 466 -467 0
467 -59 -466 0
59 466 467 0
467 468 0
463 468 0
460 468 0
456 468 0
453 468 0
450 468 0
446 468 0
443 468 0
439 468 0
435 468 0
432 468 0
428 468 0
-424 468 0
422 468 0
419 468 0
415 468 0
412 468 0
409 468 0
406 468 0
403 468 0
402 468 0
398 468 0
394 468 0
390 468 0
386 468 0
382 468 0
379 468 0
372 468 0
368 468 0
367 468 0
-363 468 0
362 468 0
358 468 0
354 468 0
350 468 0
346 468 0
342 468 0
338 468 0
334 468 0
330 468 0
326 468 0
323 468 0
320 468 0
317 468 0
313 468 0
309 468 0
306 468 0
301 468 0
296 468 0
-296 -301 -306 -309 -313 -317 -320 -323 -326 -330 -334 -338 -342 -346 -350 -354 -358 -362 363 -367 -368 -372 -379 -382 -386 -390 -394 -398 -402 -403 -406 -409 -412 -415 -419 -422 424 -428 -432 -435 -439 -443 -446 -450 -453 -456 -460 -463 -467 -468 0
-11 -468 0
11 -256 0
